%%%%%%%%%%%%%%%%%%%%%%%%%%%%%%%%%%%%%%%%%%%%%%%%%%%%%%%%%%%%%%%%%%%%%%%%%
%FILE DATA:	Soccer Computational Problem for MiniZinc Models
%AUTHORS:	Robinson Duque, Alejandro Arbelaez, Juan Francisco Díaz
%CONTACT:  	robinson.duque@correounivalle.edu.co 
%LAST UPDATE:	May, 2018 
%ROUND ROBIN:2
%TEAMS:20
%PRESENT FIXTURE:31
%FIXTURES TO PLAY:7
%GAMES TO PLAY:70
%%%%%%%%%%%%%%%%%%%%%%%%%%%%%%%%%%%%%%%%%%%%%%%%%%%%%%%%%%%%%%%%%%%%%%%%%
%Number of teams:
n=20;

%For the purpose of our models, we offer two representations of the games to play, namely fixtures and games to play:

%Fixtures to play:
%fixtures=[|0,0,1,0,1,0,0,1,0,0,0,1,0,0,1,1,0,0,1,0
%|0,0,1,1,1,1,0,0,1,0,1,0,0,1,0,0,0,0,0,0
%|1,1,0,1,0,1,1,0,0,0,1,0,0,0,0,1,0,0,0,0
%|0,1,1,0,1,0,0,0,0,0,0,1,0,0,1,0,1,1,0,0
%|1,1,0,1,0,1,0,0,0,1,0,1,0,1,0,0,0,0,0,0
%|0,1,1,0,1,0,0,0,0,1,0,0,0,1,0,0,1,1,0,0
%|0,0,1,0,0,0,0,0,1,1,1,1,1,0,0,0,0,0,1,0
%|1,0,0,0,0,0,0,0,0,1,0,1,1,0,0,0,0,1,1,1
%|0,1,0,0,0,0,1,0,0,0,1,0,1,0,0,1,1,0,0,1
%|0,0,0,0,1,1,1,1,0,0,0,0,0,1,0,0,1,1,0,0
%|0,1,1,0,0,0,1,0,1,0,0,0,0,1,0,0,1,0,0,1
%|1,0,0,1,1,0,1,1,0,0,0,0,0,1,1,0,0,0,0,0
%|0,0,0,0,0,0,1,1,1,0,0,0,0,0,1,1,0,1,1,0
%|0,1,0,0,1,1,0,0,0,1,1,1,0,0,0,0,0,1,0,0
%|1,0,0,1,0,0,0,0,0,0,0,1,1,0,0,1,0,0,1,1
%|1,0,1,0,0,0,0,0,1,0,0,0,1,0,1,0,1,0,1,0
%|0,0,0,1,0,1,0,0,1,1,1,0,0,0,0,1,0,0,0,1
%|0,0,0,1,0,1,0,1,0,1,0,0,1,1,0,0,0,0,0,1
%|1,0,0,0,0,0,1,1,0,0,0,0,1,0,1,1,0,0,0,1
%|0,0,0,0,0,0,0,1,1,0,1,0,0,0,1,0,1,1,1,0|];

%Played Fixtures:
%PlayedFixtures=[|0,2,1,2,1,2,2,1,2,2,2,1,2,2,1,1,2,2,1,2
%|2,0,1,1,1,1,2,2,1,2,1,2,2,1,2,2,2,2,2,2
%|1,1,0,1,2,1,1,2,2,2,1,2,2,2,2,1,2,2,2,2
%|2,1,1,0,1,2,2,2,2,2,2,1,2,2,1,2,1,1,2,2
%|1,1,2,1,0,1,2,2,2,1,2,1,2,1,2,2,2,2,2,2
%|2,1,1,2,1,0,2,2,2,1,2,2,2,1,2,2,1,1,2,2
%|2,2,1,2,2,2,0,2,1,1,1,1,1,2,2,2,2,2,1,2
%|1,2,2,2,2,2,2,0,2,1,2,1,1,2,2,2,2,1,1,1
%|2,1,2,2,2,2,1,2,0,2,1,2,1,2,2,1,1,2,2,1
%|2,2,2,2,1,1,1,1,2,0,2,2,2,1,2,2,1,1,2,2
%|2,1,1,2,2,2,1,2,1,2,0,2,2,1,2,2,1,2,2,1
%|1,2,2,1,1,2,1,1,2,2,2,0,2,1,1,2,2,2,2,2
%|2,2,2,2,2,2,1,1,1,2,2,2,0,2,1,1,2,1,1,2
%|2,1,2,2,1,1,2,2,2,1,1,1,2,0,2,2,2,1,2,2
%|1,2,2,1,2,2,2,2,2,2,2,1,1,2,0,1,2,2,1,1
%|1,2,1,2,2,2,2,2,1,2,2,2,1,2,1,0,1,2,1,2
%|2,2,2,1,2,1,2,2,1,1,1,2,2,2,2,1,0,2,2,1
%|2,2,2,1,2,1,2,1,2,1,2,2,1,1,2,2,2,0,2,1
%|1,2,2,2,2,2,1,1,2,2,2,2,1,2,1,1,2,2,0,1
%|2,2,2,2,2,2,2,1,1,2,1,2,2,2,1,2,1,1,1,0|];

%Games to play:
games=[|3,1|3,2|4,2|4,3|5,1|5,2|5,4|6,2|6,3|6,5|7,3|8,1|9,2|9,7|10,5|10,6|10,7|10,8|11,2|11,3|11,7|11,9|12,1|12,4|12,5|12,7|12,8|13,7|13,8|13,9|14,2|14,5|14,6|14,10|14,11|14,12|15,1|15,4|15,12|15,13|16,1|16,3|16,9|16,13|16,15|17,4|17,6|17,9|17,10|17,11|17,16|18,4|18,6|18,8|18,10|18,13|18,14|19,1|19,7|19,8|19,13|19,15|19,16|20,8|20,9|20,11|20,15|20,17|20,18|20,19|];

%Played Games:
%PlayedGames=[|2,1|2,1|3,1|3,2|4,1|4,1|4,2|4,3|5,1|5,2|5,3|5,3|5,4|6,1|6,1|6,2|6,3|6,4|6,4|6,5|7,1|7,1|7,2|7,2|7,3|7,4|7,4|7,5|7,5|7,6|7,6|8,1|8,2|8,2|8,3|8,3|8,4|8,4|8,5|8,5|8,6|8,6|8,7|8,7|9,1|9,1|9,2|9,3|9,3|9,4|9,4|9,5|9,5|9,6|9,6|9,7|9,8|9,8|10,1|10,1|10,2|10,2|10,3|10,3|10,4|10,4|10,5|10,6|10,7|10,8|10,9|10,9|11,1|11,1|11,2|11,3|11,4|11,4|11,5|11,5|11,6|11,6|11,7|11,8|11,8|11,9|11,10|11,10|12,1|12,2|12,2|12,3|12,3|12,4|12,5|12,6|12,6|12,7|12,8|12,9|12,9|12,10|12,10|12,11|12,11|13,1|13,1|13,2|13,2|13,3|13,3|13,4|13,4|13,5|13,5|13,6|13,6|13,7|13,8|13,9|13,10|13,10|13,11|13,11|13,12|13,12|14,1|14,1|14,2|14,3|14,3|14,4|14,4|14,5|14,6|14,7|14,7|14,8|14,8|14,9|14,9|14,10|14,11|14,12|14,13|14,13|15,1|15,2|15,2|15,3|15,3|15,4|15,5|15,5|15,6|15,6|15,7|15,7|15,8|15,8|15,9|15,9|15,10|15,10|15,11|15,11|15,12|15,13|15,14|15,14|16,1|16,2|16,2|16,3|16,4|16,4|16,5|16,5|16,6|16,6|16,7|16,7|16,8|16,8|16,9|16,10|16,10|16,11|16,11|16,12|16,12|16,13|16,14|16,14|16,15|17,1|17,1|17,2|17,2|17,3|17,3|17,4|17,5|17,5|17,6|17,7|17,7|17,8|17,8|17,9|17,10|17,11|17,12|17,12|17,13|17,13|17,14|17,14|17,15|17,15|17,16|18,1|18,1|18,2|18,2|18,3|18,3|18,4|18,5|18,5|18,6|18,7|18,7|18,8|18,9|18,9|18,10|18,11|18,11|18,12|18,12|18,13|18,14|18,15|18,15|18,16|18,16|18,17|18,17|19,1|19,2|19,2|19,3|19,3|19,4|19,4|19,5|19,5|19,6|19,6|19,7|19,8|19,9|19,9|19,10|19,10|19,11|19,11|19,12|19,12|19,13|19,14|19,14|19,15|19,16|19,17|19,17|19,18|19,18|20,1|20,1|20,2|20,2|20,3|20,3|20,4|20,4|20,5|20,5|20,6|20,6|20,7|20,7|20,8|20,9|20,10|20,10|20,11|20,12|20,12|20,13|20,13|20,14|20,14|20,15|20,16|20,16|20,17|20,18|20,19|];

%Played Games - Win Results:
%% 0  0  0  0  0  0  0  1  0  0  0  0  0  0  0  0  0  0  0  0
%% 0  0  1  1  0  1  0  1  0  0  0  2  0  1  1  0  0  0  0  0
%% 0  0  0  0  2  0  1  0  0  1  0  1  0  0  2  0  0  0  0  0
%% 0  0  0  0  0  0  0  0  0  0  0  0  0  0  0  0  0  0  0  0
%% 0  0  0  0  0  0  0  0  0  0  0  0  0  0  0  0  0  0  0  0
%% 0  0  0  0  0  0  0  0  0  0  0  0  0  1  0  0  0  0  0  0
%% 0  0  0  0  0  0  0  0  0  1  0  1  0  0  1  0  0  0  0  0
%% 0  0  0  0  0  0  0  0  0  0  0  0  0  0  0  0  0  0  0  0
%% 0  1  0  0  2  0  1  0  0  2  0  0  0  0  0  0  0  0  0  0
%% 0  0  0  0  0  0  0  0  0  0  0  0  0  1  0  0  0  0  0  0
%% 2  0  1  0  1  1  0  1  1  0  0  2  2  1  1  0  0  0  0  0
%% 0  0  0  0  0  0  0  0  0  0  0  0  0  0  0  0  0  0  0  0
%% 2  0  0  0  0  0  0  1  1  0  0  2  0  0  1  0  0  0  0  0
%% 0  0  0  0  0  0  0  0  0  0  0  0  0  0  0  0  0  0  0  0
%% 0  0  0  1  0  0  0  0  0  0  0  0  0  0  0  0  0  0  0  0
%% 1  0  0  0  1  0  0  0  0  0  2  2  1  0  1  0  1  2  0  2
%% 2  0  0  1  0  1  0  0  1  1  0  1  2  0  0  0  0  0  2  0
%% 1  2  0  1  0  1  0  1  0  1  0  1  0  1  0  0  2  0  0  0
%% 0  0  1  2  1  2  1  1  0  0  0  1  0  0  0  0  0  0  0  0
%% 2  1  2  2  0  0  0  1  1  0  0  1  0  0  1  0  0  0  0  0
%Played Games - Tie Results:
%% 0  2  1  2  1  2  2  0  2  2  0  1  0  2  1  0  0  1  1  0
%% 2  0  0  0  1  0  2  1  0  2  1  0  2  0  1  2  2  0  2  1
%% 1  0  0  1  0  1  0  2  2  1  0  1  2  2  0  1  2  2  1  0
%% 2  0  1  0  1  2  2  2  2  2  2  1  2  2  0  2  0  0  0  0
%% 1  1  0  1  0  1  2  2  0  1  1  1  2  1  2  1  2  2  1  2
%% 2  0  1  2  1  0  2  2  2  1  1  2  2  0  2  2  0  0  0  2
%% 2  2  0  2  2  2  0  2  0  0  1  0  1  2  1  2  2  2  0  2
%% 0  1  2  2  2  2  2  0  2  1  1  1  0  2  2  2  2  0  0  0
%% 2  0  2  2  0  2  0  2  0  0  0  2  0  2  2  1  0  2  2  0
%% 2  2  1  2  1  1  0  1  0  0  2  2  2  0  2  2  0  0  2  2
%% 0  1  0  2  1  1  1  1  0  2  0  0  0  0  1  0  1  2  2  1
%% 1  0  1  1  1  2  0  1  2  2  0  0  0  1  1  0  1  1  1  1
%% 0  2  2  2  2  2  1  0  0  2  0  0  0  2  0  0  0  1  1  2
%% 2  0  2  2  1  0  2  2  2  0  0  1  2  0  2  2  2  0  2  2
%% 1  1  0  0  2  2  1  2  2  2  1  1  0  2  0  0  2  2  1  0
%% 0  2  1  2  1  2  2  2  1  2  0  0  0  2  0  0  0  0  1  0
%% 0  2  2  0  2  0  2  2  0  0  1  1  0  2  2  0  0  0  0  1
%% 1  0  2  0  2  0  2  0  2  0  2  1  1  0  2  0  0  0  2  1
%% 1  2  1  0  1  0  0  0  2  2  2  1  1  2  1  1  0  2  0  1
%% 0  1  0  0  2  2  2  0  0  2  1  1  2  2  0  0  1  1  1  0
%Played Games - Lose Results:
%% 0  0  0  0  0  0  0  0  0  0  2  0  2  0  0  1  2  1  0  2
%% 0  0  0  0  0  0  0  0  1  0  0  0  0  0  0  0  0  2  0  1
%% 0  1  0  0  0  0  0  0  0  0  1  0  0  0  0  0  0  0  1  2
%% 0  1  0  0  0  0  0  0  0  0  0  0  0  0  1  0  1  1  2  2
%% 0  0  2  0  0  0  0  0  2  0  1  0  0  0  0  1  0  0  1  0
%% 0  1  0  0  0  0  0  0  0  0  1  0  0  0  0  0  1  1  2  0
%% 0  0  1  0  0  0  0  0  1  0  0  0  0  0  0  0  0  0  1  0
%% 1  1  0  0  0  0  0  0  0  0  1  0  1  0  0  0  0  1  1  1
%% 0  0  0  0  0  0  0  0  0  0  1  0  1  0  0  0  1  0  0  1
%% 0  0  1  0  0  0  1  0  2  0  0  0  0  0  0  0  1  1  0  0
%% 0  0  0  0  0  0  0  0  0  0  0  0  0  0  0  2  0  0  0  0
%% 0  2  1  0  0  0  1  0  0  0  2  0  2  0  0  2  1  1  1  1
%% 0  0  0  0  0  0  0  0  0  0  2  0  0  0  0  1  2  0  0  0
%% 0  1  0  0  0  1  0  0  0  1  1  0  0  0  0  0  0  1  0  0
%% 0  1  2  0  0  0  1  0  0  0  1  0  1  0  0  1  0  0  0  1
%% 0  0  0  0  0  0  0  0  0  0  0  0  0  0  0  0  0  0  0  0
%% 0  0  0  0  0  0  0  0  0  0  0  0  0  0  0  1  0  2  0  0
%% 0  0  0  0  0  0  0  0  0  0  0  0  0  0  0  2  0  0  0  0
%% 0  0  0  0  0  0  0  0  0  0  0  0  0  0  0  0  2  0  0  0
%% 0  0  0  0  0  0  0  0  0  0  0  0  0  0  0  2  0  0  0  0

%%Initial points:
iPoints=[23, 43, 40, 23, 24, 27, 34, 24, 39, 27, 55, 17, 40, 26, 25, 57, 50, 51, 47, 51];

%%Initial positions:
%iPositions=[19, 7, 9, 18, 17, 13, 11, 16, 10, 12, 2, 20, 8, 14, 15, 1, 5, 4, 6, 3];

%%Position Constraints:
%numberPositionConstraints=1;

%%Total Fixtures:
%totalFixtures=38;

%%Fixtures to Play:
%fixturesToPlay=7;

%%Position Constraints Built With
%wantedPoints=[0, 3, 1, 3, 0, 0, 0, 1, 1, 3, 3, 3, 3, 0, 0, 0, 1, 1, 0, 3, 0, 1, 3, 1, 1, 3, 1, 3, 0, 3, 1, 0, 1, 0, 0, 0, 3, 1, 0, 1, 1, 1, 0, 3, 3, 0, 3, 1, 0, 1, 1, 3, 1, 1, 0, 3, 1, 0, 1, 3, 3, 1, 0, 3, 1, 3, 3, 1, 3, 1];

%POSITION CONSTRAINTS
%%[|teamID, operator, position|...]
%%operators index:
%%%1 for =  operator
%%%2 for >  operator
%%%3 for >= operator
%%%4 for <  operator
%%%5 for <= operator

positionConstraints=[|18,1,4|];

%SCORE VECTOR CONSTRAINTS
%%[|teamID, operator, wantedPoints|...]
%%operators index:
%%%1 for =  operator
%%%2 for >  operator
%%%3 for >= operator
%%%4 for <  operator
%%%5 for <= operator

%scoreVectorConstraints=[|18,1,60|];

%Instance Features:
%features=T,FP,TF,C,C/T,C/TF,FP/TF,FP/T,FP*C/T,FP*T/C,(C/T)*(FP/TF),Distance,Distance/C,Distance/T,Distance/(C*T)
%values=20,7,38,1,0.05,0.02631578947368421,0.1842105263157895,0.35,0.35,140.0,0.009210526315789473,0,0.0,0.0,0.0



gamesOfEveryTeam=[7,7,7,7,7,7,7,7,7,7,7,7,7,7,7,7,7,7,7,7];
weights=[|53,24,0,23|17,78,0,5|40,34,0,26|30,18,0,52|44,1,0,55|35,3,0,62|19,20,0,61|63,11,0,26|45,48,0,7|88,0,0,12|90,9,0,1|70,9,0,21|89,11,0,0|32,10,0,58|52,32,0,16|20,27,0,53|13,13,0,74|59,32,0,9|13,6,0,81|5,78,0,17|53,24,0,23|36,57,0,7|22,49,0,29|29,60,0,11|87,0,0,13|28,25,0,47|46,30,0,24|3,43,0,54|14,74,0,12|12,1,0,87|95,1,0,4|83,15,0,2|49,37,0,14|30,49,0,21|19,77,0,4|25,13,0,62|100,0,0,0|8,45,0,47|48,27,0,25|3,32,0,65|63,11,0,26|53,11,0,36|100,0,0,0|36,1,0,63|77,23,0,0|11,46,0,43|53,31,0,16|61,26,0,13|71,9,0,20|72,22,0,6|31,15,0,54|55,11,0,34|37,36,0,27|76,3,0,21|98,0,0,2|82,11,0,7|98,2,0,0|35,58,0,7|8,3,0,89|77,21,0,2|97,1,0,2|25,3,0,72|33,61,0,6|100,0,0,0|94,6,0,0|30,70,0,0|94,0,0,6|76,17,0,7|28,18,0,54|68,10,0,22|];